
  22   10
  10   10   10   10   10   10   10   10   10   10

   0   0   0   0   0   0   0   0   0   0   0   3 2 3 5 
  10   0   0   0   0   0  10   0   0   0   0   2 8 4 
   9   0   0   0   0   0   0   0   0  10   0   5 12 10 9 8 7 
   5   0  10   0   0   0   0   0   0   0   0   4 15 12 10 6 
   8   0   0   0  10   0   0   0   0   0   0   4 12 9 8 7 
   8   0   0   0   0  10   0   0   0   0   0   2 9 7 
   3   0   0  10   0   0   0   0   0   0   0   2 13 11 
   4   0   0   0   0   0   0  10   0   0   0   2 19 15 
  10   0   0   0   0  10   0   0   0   0   0   2 19 16 
   8   0   0   0   0   0   0   0  10   0   0   2 19 16 
   6   0   0   0   0   0   0   0   0   0  10   1 14 
   5   0   0   0   0   0   0   0  10   0   0   1 14 
   8   0   0  10   0   0   0   0   0   0   0   2 19 17 
   4   0   0  10   0   0   0   0   0   0   0   1 16 
   7   0   0  10   0   0   0   0   0   0   0   1 16 
   4   0   0  10   0   0   0   0   0   0   0   1 17 
   6   0   0   0   0   0   0   0   0  10   0   2 20 18 
   7   0   0   0   0   0  10   0   0   0   0   1 21 
   6   0   0   0  10   0   0   0   0   0   0   1 20 
   4   0   0   0   0  10   0   0   0   0   0   1 22
   8   0  10   0   0   0   0   0   0   0   0   1 22
   0   0   0   0   0   0   0   0   0   0   0   0 
